Minimize
  obj: x0 + x1 + x2 + x3 + x4 + x5 + x6 + x7 + x8 + x9

Subject To
  c0: x0 + x3 + x5 + x6 + x8 = 56
  c1: x0 + x2 + x3 + x4 + x5 + x6 + x7 + x9 = 65
  c2: x2 + x5 + x9 = 39
  c3: x2 + x6 + x8 + x9 = 40
  c4: x1 + x2 + x3 + x5 + x6 + x8 = 67
  c5: x2 + x9 = 19
  c6: x2 + x6 + x7 + x9 = 27
  c7: x0 + x2 + x6 + x7 = 16
  c8: x4 + x9 = 16
  c9: x1 + x2 + x3 + x6 + x8 + x9 = 60

Bounds
  x0 >= 0
  x1 >= 0
  x2 >= 0
  x3 >= 0
  x4 >= 0
  x5 >= 0
  x6 >= 0
  x7 >= 0
  x8 >= 0
  x9 >= 0

Generals
  x0 x1 x2 x3 x4 x5 x6 x7 x8 x9

End
